robust/generate/spp_dkp_Lefebvre_et_al_2026/src/shortest_path_7_10.kp
52
171

[4.14 0.13 1.06 3.11 0.49 3.12 0.27 4.83 4.93 2.62 3.2 3.85 3.85 2.1 3.87 2.13 4.66 3.43 1.85 4.32 1.91 0.48 1.63 2.09 3.73 3.31 1.01 4.07 3.96 1.99 2.57 4.0 2.24 3.74]

[25 39 77 60 15 85 72 89 69 23 51 18 42 11 37 9 22 92 15 52 97 96 64 56 69 68 89 91 66 60 90 25 30 83]
